50
12534

374 610
466 972
884 555
788 665
366 806
537 499
675 359
766 532
617 573
576 931
311 107
296 878
728 633
248 770
799 267
762 32
440 821
691 326
653 18
150 126
343 907
859 416
704 692
673 270
927 95
151 555
63 562
927 316
440 981
770 230
929 648
217 455
530 593
205 697
710 712
754 713
964 837
408 704
985 992
184 132
267 72
363 338
681 677
70 482
96 817
358 863
740 307
630 665
895 591
606 59
